
Gurobi 7.5.2 (linux64) logging started Sat Jun 23 16:25:59 2018

Changed value of parameter LogFile to result/ilp/simNo_5-n_100-m_40-s_7-minVAF_0.05-cov_2000-k_2-fn_0.25-fp_0.0001-na_0.15.ILP.gurobiSolverLog
   Prev: gurobi.log  Default: 
Changed value of parameter TimeLimit to 86400.0
   Prev: 1e+100  Min: 0.0  Max: 1e+100  Default: 1e+100
Optimize a model with 1265601 rows, 330440 columns and 3489120 nonzeros
Variable types: 0 continuous, 330440 integer (330440 binary)
Coefficient statistics:
  Matrix range     [9e-04, 2e+00]
  Objective range  [1e+00, 2e+01]
  Bounds range     [1e+00, 1e+00]
  RHS range        [9e-02, 2e+00]
Found heuristic solution: objective -6064.876724
Presolve removed 376371 rows and 227386 columns (presolve time = 5s) ...
Presolve removed 394157 rows and 227386 columns (presolve time = 11s) ...
Presolve removed 394157 rows and 227386 columns (presolve time = 15s) ...
Presolve removed 394157 rows and 227386 columns (presolve time = 21s) ...
Presolve removed 394157 rows and 227386 columns (presolve time = 25s) ...
Presolve removed 394157 rows and 227386 columns (presolve time = 30s) ...
Presolve removed 394157 rows and 227386 columns (presolve time = 36s) ...
Presolve removed 394157 rows and 227386 columns
Presolve time: 38.33s
Presolved: 871444 rows, 103054 columns, 2426696 nonzeros
Variable types: 0 continuous, 103054 integer (103054 binary)
Presolve removed 0 rows and 0 columns (presolve time = 5s) ...
Presolved: 103054 rows, 974498 columns, 2529750 nonzeros

Presolve removed 103054 rows and 974498 columns

Root simplex log...

Iteration    Objective       Primal Inf.    Dual Inf.      Time
       0    4.3604165e+01   0.000000e+00   4.751000e+04     52s
   11058   -1.2501620e+02   2.520132e-03   0.000000e+00     57s
   11060   -1.2501620e+02   0.000000e+00   0.000000e+00     57s
   11060   -1.2501620e+02   0.000000e+00   0.000000e+00     60s

Root relaxation: objective -1.250162e+02, 11060 iterations, 18.28 seconds
Total elapsed time = 81.23s
Total elapsed time = 91.29s
Total elapsed time = 99.17s

    Nodes    |    Current Node    |     Objective Bounds      |     Work
 Expl Unexpl |  Obj  Depth IntInf | Incumbent    BestBd   Gap | It/Node Time

     0     0 -125.01620    0  559 -6064.8767 -125.01620  97.9%     -  108s
H    0     0                    -151.0614364 -125.01620  17.2%     -  126s
     0     0 -130.14325    0  532 -151.06144 -130.14325  13.8%     -  146s
H    0     0                    -149.2888041 -130.14325  12.8%     -  158s
     0     0 -130.34369    0  536 -149.28880 -130.34369  12.7%     -  164s
     0     0 -131.94208    0  567 -149.28880 -131.94208  11.6%     -  178s
H    0     0                    -140.8724090 -131.94208  6.34%     -  185s
     0     0 -132.34297    0  567 -140.87241 -132.34297  6.05%     -  194s
     0     0 -132.99175    0  542 -140.87241 -132.99175  5.59%     -  208s
     0     0 -132.99175    0  546 -140.87241 -132.99175  5.59%     -  222s
     0     0 -133.56894    0  541 -140.87241 -133.56894  5.18%     -  239s
     0     0 -133.57611    0  540 -140.87241 -133.57611  5.18%     -  251s
     0     0 -133.57611    0  542 -140.87241 -133.57611  5.18%     -  259s
     0     0 -133.70548    0  551 -140.87241 -133.70548  5.09%     -  274s
     0     0 -133.72840    0  529 -140.87241 -133.72840  5.07%     -  289s
     0     0 -133.78390    0  556 -140.87241 -133.78390  5.03%     -  296s
     0     0 -133.81783    0  517 -140.87241 -133.81783  5.01%     -  304s
     0     0 -133.81783    0  517 -140.87241 -133.81783  5.01%     -  311s
     0     0 -134.55146    0  456 -140.87241 -134.55146  4.49%     -  342s
     0     0 -134.55146    0  351 -140.87241 -134.55146  4.49%     -  551s
     0     0 -134.55146    0  293 -140.87241 -134.55146  4.49%     -  553s
     0     0 -134.66971    0  280 -140.87241 -134.66971  4.40%     -  554s
     0     0 -134.79199    0  291 -140.87241 -134.79199  4.32%     -  554s
     0     0 -134.79199    0  292 -140.87241 -134.79199  4.32%     -  555s
     0     0 -136.19278    0  308 -140.87241 -136.19278  3.32%     -  555s
     0     0 -136.19278    0  285 -140.87241 -136.19278  3.32%     -  556s
     0     0 -136.54688    0  274 -140.87241 -136.54688  3.07%     -  557s
     0     0 -136.56067    0  289 -140.87241 -136.56067  3.06%     -  557s
     0     0 -136.56067    0  287 -140.87241 -136.56067  3.06%     -  557s
     0     0 -136.96713    0  287 -140.87241 -136.96713  2.77%     -  558s
     0     0 -137.06033    0  281 -140.87241 -137.06033  2.71%     -  559s
     0     0 -137.11256    0  259 -140.87241 -137.11256  2.67%     -  559s
     0     0 -137.11256    0  254 -140.87241 -137.11256  2.67%     -  559s
     0     0 -138.19591    0  268 -140.87241 -138.19591  1.90%     -  560s
     0     0 -138.32330    0  276 -140.87241 -138.32330  1.81%     -  560s
     0     0 -138.32945    0  280 -140.87241 -138.32945  1.81%     -  561s
     0     0 -138.32945    0  280 -140.87241 -138.32945  1.81%     -  561s
     0     0 -138.32945    0  281 -140.87241 -138.32945  1.81%     -  562s
     0     0 -138.55467    0  255 -140.87241 -138.55467  1.65%     -  562s
     0     0 -138.90178    0  277 -140.87241 -138.90178  1.40%     -  563s
     0     0 -139.06766    0  278 -140.87241 -139.06766  1.28%     -  563s
     0     0 -139.06766    0  277 -140.87241 -139.06766  1.28%     -  564s
     0     0 -139.29442    0  269 -140.87241 -139.29442  1.12%     -  564s
     0     0 -139.29442    0  231 -140.87241 -139.29442  1.12%     -  567s
     0     0 -139.42086    0  151 -140.87241 -139.42086  1.03%     -  568s
     0     0 -139.48308    0   97 -140.87241 -139.48308  0.99%     -  568s
     0     0 -139.61278    0   61 -140.87241 -139.61278  0.89%     -  568s
     0     0 -139.62417    0  100 -140.87241 -139.62417  0.89%     -  568s
     0     0 -139.62417    0  100 -140.87241 -139.62417  0.89%     -  568s
     0     0 -139.86284    0  119 -140.87241 -139.86284  0.72%     -  569s
     0     0 -139.88286    0  100 -140.87241 -139.88286  0.70%     -  569s
     0     0 -139.94276    0  112 -140.87241 -139.94276  0.66%     -  569s
     0     0 -139.94276    0   54 -140.87241 -139.94276  0.66%     -  570s
     0     0 -139.94619    0   38 -140.87241 -139.94619  0.66%     -  570s
     0     0 -139.94619    0   36 -140.87241 -139.94619  0.66%     -  570s
     0     0     cutoff    0      -140.87241 -140.87241  0.00%     -  570s
     0     0     cutoff    0      -140.87241 -140.87241  0.00%     -  570s

Cutting planes:
  Gomory: 6
  Clique: 2
  Zero half: 10

Explored 1 nodes (30477 simplex iterations) in 570.96 seconds
Thread count was 1 (of 80 available processors)

Solution count 7: -140.872 -140.872 -140.872 ... -6064.88

Optimal solution found (tolerance 1.00e-04)
Best objective -1.408724089745e+02, best bound -1.408724089745e+02, gap 0.0000%
